%BLOCK LATTICE_CART
ang    # angstrom units
  100.000000000000   0.000000000000     0.000000000000   
  0.000000000000     100.000000000000   0.000000000000   
  0.000000000000     0.000000000000     100.000000000000 
%ENDBLOCK LATTICE_CART

%BLOCK POSITIONS_FRAC
C      0.000000000000     0.000000000000     0.000000000000   
C      0.000000000000     0.000000000000     0.333333333333   
C      0.000000000000     0.000000000000     0.666666666667   
C      0.000000000000     0.333333333333     0.000000000000   
C      0.000000000000     0.333333333333     0.333333333333   
C      0.000000000000     0.333333333333     0.666666666667   
C      0.000000000000     0.666666666667     0.000000000000   
C      0.000000000000     0.666666666667     0.333333333333   
C      0.000000000000     0.666666666667     0.666666666667   
C      0.333333333333     0.000000000000     0.000000000000   
C      0.333333333333     0.000000000000     0.333333333333   
C      0.333333333333     0.000000000000     0.666666666667   
C      0.333333333333     0.333333333333     0.000000000000   
C      0.333333333333     0.333333333333     0.333333333333   
C      0.333333333333     0.333333333333     0.666666666667   
C      0.333333333333     0.666666666667     0.000000000000   
C      0.333333333333     0.666666666667     0.333333333333   
C      0.333333333333     0.666666666667     0.666666666667   
C      0.666666666667     0.000000000000     0.000000000000   
C      0.666666666667     0.000000000000     0.333333333333   
C      0.666666666667     0.000000000000     0.666666666667   
C      0.666666666667     0.333333333333     0.000000000000   
C      0.666666666667     0.333333333333     0.333333333333   
C      0.666666666667     0.333333333333     0.666666666667   
C      0.666666666667     0.666666666667     0.000000000000   
C      0.666666666667     0.666666666667     0.333333333333   
C      0.666666666667     0.666666666667     0.666666666667   
%ENDBLOCK POSITIONS_FRAC
